problems/csplib-prob030/BalancedAcademicCurriculumProblem-models/compact/O0/minion/model-bacp-2-solution000001.eprime-solution
language ESSENCE' 1.0

letting curr_Function1D be
        [3, 2, 2, 2, 1, 2, 1, 2, 8, 8, 1, 8, 1, 8, 1, 7, 7, 7, 7, 7, 6, 6, 6, 6, 6, 6, 6, 6, 5, 1, 5, 5, 4, 4, 2, 4, 4,
         10, 3, 1, 3, 3, 9, 1, 1, 2, 2, 9, 1, 10;
             int(1..50)]
