problems/csplib-prob030/BalancedAcademicCurriculumProblem-models/compact/O0/minion/model-bacp-2-solution000001.solution
language Essence 1.3

letting curr be
        function(1 --> 3, 2 --> 2, 3 --> 2, 4 --> 2, 5 --> 1, 6 --> 2, 7 --> 1, 8 --> 2, 9 --> 8, 10 --> 8, 11 --> 1,
                 12 --> 8, 13 --> 1, 14 --> 8, 15 --> 1, 16 --> 7, 17 --> 7, 18 --> 7, 19 --> 7, 20 --> 7, 21 --> 6,
                 22 --> 6, 23 --> 6, 24 --> 6, 25 --> 6, 26 --> 6, 27 --> 6, 28 --> 6, 29 --> 5, 30 --> 1, 31 --> 5,
                 32 --> 5, 33 --> 4, 34 --> 4, 35 --> 2, 36 --> 4, 37 --> 4, 38 --> 10, 39 --> 3, 40 --> 1, 41 --> 3,
                 42 --> 3, 43 --> 9, 44 --> 1, 45 --> 1, 46 --> 2, 47 --> 2, 48 --> 9, 49 --> 1, 50 --> 10)
